PROBLEM NAME: eil51_n19
KNAPSACK DATA TYPE: uncorrelated
DIMENSION: 19
NUMBER OF ITEMS: 18
CAPACITY OF KNAPSACK: 955
MIN SPEED: 0.1
MAX SPEED: 1
RENTING RATIO: 2.98
EDGE_WEIGHT_TYPE: CEIL_2D
NODE_COORD_SECTION	(INDEX, X, Y):
1	37	52
2	49	49
3	52	64
4	52	33
5	51	21
6	36	16
7	52	41
8	27	23
9	16	57
10	7	38
11	43	67
12	58	48
13	37	69
14	62	63
15	32	22
16	45	35
17	10	17
18	5	64
19	30	15
ITEMS SECTION	(INDEX, PROFIT, WEIGHT, ASSIGNED NODE NUMBER):
1	992	421	13
2	815	845	11
3	791	9	3
4	766	882	14
5	667	122	12
6	649	322	2
7	598	94	7
8	544	574	16
9	506	326	4
10	457	43	5
11	446	955	6
12	422	252	19
13	416	248	15
14	359	901	8
15	334	715	17
16	237	795	10
17	94	485	18
18	7	738	9
